decision_x1=[0,2];
decision_x2=[0,2];
decision_x3=[0,2];
decision_x4=[0,2];
decision_x5=[0,2];
random_y1=[0,2];
constraint_x2_x1=[
0,0,5.7|
0,1,8.6|
0,2,1.3|
1,0,1.9|
1,1,7.2|
1,2,7.8|
2,0,0.38|
2,1,3.7|
2,2,3.2|
];
constraint_x3_x2=[
0,0,9.2|
0,1,0.49|
0,2,8.9|
1,0,7.9|
1,1,1.3|
1,2,0.85|
2,0,8.4|
2,1,6.5|
2,2,7.2|
];
constraint_x4_x1=[
0,0,4.6|
0,1,8.9|
0,2,2.1|
1,0,1.8|
1,1,10|
1,2,9.6|
2,0,4.7|
2,1,6.7|
2,2,2.9|
];
constraint_x4_x3=[
0,0,4.1|
0,1,0.014|
0,2,3.6|
1,0,2|
1,1,8.9|
1,2,2.8|
2,0,6.2|
2,1,2.5|
2,2,3.5|
];
constraint_x5_x3=[
0,0,0.38|
0,1,0.12|
0,2,2.2|
1,0,6.1|
1,1,6.1|
1,2,5.1|
2,0,8.6|
2,1,9.8|
2,2,0.36|
];
constraint_x1_y1=[
0,0,8.8|
0,1,3.9|
0,2,6.3|
1,0,8.5|
1,1,1.2|
1,2,5|
2,0,4.4|
2,1,1.3|
2,2,1.4|
];
initial_distribution_y1=[0.12,0.61,0.27];
transition_y1=[
0.12,0.51,0.37|
0.091,0.42,0.48|
0.41,0.15,0.44|
];
